TCS_Benchmarks/redos_fix/corpus2_output_distinct_3907_3906_0_0.txt
={2,3}
(={2,3})(\s*)([^\s,]+)
[^\s,]+